DATASET = "thpack4";
INSTANCE = "028";

WIDTH = 233;
HEIGHT = 220;
LENGTH = 587;

NO_OF_SHAPES = 10;
size = [|
  62,59,52 |
  54,52,50 |
  102,69,65 |
  97,76,46 |
  52,50,37 |
  93,85,23 |
  90,38,38 |
  66,60,40 |
  38,31,26 |
  86,60,36 |
|];

verticality = [|
  1,1,1 |
  1,1,1 |
  1,1,1 |
  0,1,1 |
  1,1,1 |
  0,0,1 |
  0,1,1 |
  1,1,1 |
  1,1,1 |
  0,1,1 |
|];

box_count = [
  23,
  11,
  9,
  16,
  20,
  13,
  25,
  17,
  21,
  20,
];
